words_hard_train/3841.qaiger
aag 112 16 0 1 96
2
4
8
12
16
20
42
62
70
72
76
80
84
94
100
114
224
6 2 4
10 7 9
14 11 12
18 14 16
22 18 20
24 19 21
26 23 25
28 15 17
30 29 19
32 10 13
34 33 15
36 6 8
38 37 11
40 3 5
44 40 42
46 41 7
48 45 47
50 38 48
52 34 51
54 31 53
56 27 55
58 26 54
60 57 59
64 61 62
66 60 63
68 65 67
74 70 72
78 76 72
82 80 72
86 83 85
88 87 72
90 79 89
92 75 90
96 92 95
98 97 72
102 99 101
104 103 72
106 68 105
108 69 104
110 107 109
112 59 25
116 113 114
118 112 115
120 117 119
122 102 72
124 122 63
126 121 125
128 120 124
130 127 129
132 98 100
134 133 103
136 30 52
138 137 55
140 135 138
142 134 139
144 141 143
146 93 94
148 147 97
150 35 50
152 151 53
154 149 153
156 148 152
158 155 157
160 89 76
162 88 77
164 161 163
166 42 3
168 167 46
170 169 45
172 165 171
174 164 170
176 173 175
178 91 70
180 90 71
182 179 181
184 39 49
186 185 51
188 182 186
190 176 189
192 183 187
194 190 193
196 82 84
198 197 87
200 198 3
202 199 2
204 201 203
206 204 81
208 206 42
210 205 80
212 210 43
214 209 213
216 194 215
218 159 216
220 145 218
222 131 220
224 110 222
i0 2 y2[1]
i1 2 y2[2]
i2 2 y2[3]
i3 2 y2[4]
i4 2 y2[5]
i5 2 y2[6]
i6 2 y2[0]
i7 1 x1[6]
i8 1 x1[3]
i9 1 x1[7]
i10 1 x1[2]
i11 1 x1[0]
i12 1 x1[1]
i13 1 x1[4]
i14 1 x1[5]
i15 2 y2[7]
o0 bool[0]
c
simplified
  ==
    abs
      1 x1
    subtract
      add
        2 y2
        -54
      19
