words_hard_train/3841.qaiger.qdimacs
p cnf 112 289
a 35 36 38 40 42 47 50 31 0
e 1 2 3 4 5 6 7 8 9 10 11 12 13 14 15 16 17 18 19 20 21 22 23 24 25 26 27 28 29 30 32 33 34 37 39 41 43 44 45 46 48 49 51 52 53 54 55 56 57 58 59 60 61 62 63 64 65 66 67 68 69 70 71 72 73 74 75 76 77 78 79 80 81 82 83 84 85 86 87 88 89 90 91 92 93 94 95 96 97 98 99 100 101 102 103 104 105 106 107 108 109 110 111 112 0
-1 -2 3 0
1 -3 0
2 -3 0
3 4 5 0
-3 -5 0
-4 -5 0
5 -6 7 0
-5 -7 0
6 -7 0
-7 -8 9 0
7 -9 0
8 -9 0
-9 -10 11 0
9 -11 0
10 -11 0
9 10 12 0
-9 -12 0
-10 -12 0
11 12 13 0
-11 -13 0
-12 -13 0
7 8 14 0
-7 -14 0
-8 -14 0
14 9 15 0
-14 -15 0
-9 -15 0
-5 6 16 0
5 -16 0
-6 -16 0
16 7 17 0
-16 -17 0
-7 -17 0
-3 -4 18 0
3 -18 0
4 -18 0
18 5 19 0
-18 -19 0
-5 -19 0
1 2 20 0
-1 -20 0
-2 -20 0
-20 -21 22 0
20 -22 0
21 -22 0
20 3 23 0
-20 -23 0
-3 -23 0
22 23 24 0
-22 -24 0
-23 -24 0
-19 -24 25 0
19 -25 0
24 -25 0
-17 25 26 0
17 -26 0
-25 -26 0
15 26 27 0
-15 -27 0
-26 -27 0
13 27 28 0
-13 -28 0
-27 -28 0
-13 -27 29 0
13 -29 0
27 -29 0
28 29 30 0
-28 -30 0
-29 -30 0
30 -31 32 0
-30 -32 0
31 -32 0
-30 31 33 0
30 -33 0
-31 -33 0
32 33 34 0
-32 -34 0
-33 -34 0
-35 -36 37 0
35 -37 0
36 -37 0
-38 -36 39 0
38 -39 0
36 -39 0
-40 -36 41 0
40 -41 0
36 -41 0
41 42 43 0
-41 -43 0
-42 -43 0
43 -36 44 0
-43 -44 0
36 -44 0
39 44 45 0
-39 -45 0
-44 -45 0
37 -45 46 0
-37 -46 0
45 -46 0
-46 47 48 0
46 -48 0
-47 -48 0
48 -36 49 0
-48 -49 0
36 -49 0
49 50 51 0
-49 -51 0
-50 -51 0
51 -36 52 0
-51 -52 0
36 -52 0
-34 52 53 0
34 -53 0
-52 -53 0
34 -52 54 0
-34 -54 0
52 -54 0
53 54 55 0
-53 -55 0
-54 -55 0
29 12 56 0
-29 -56 0
-12 -56 0
56 -57 58 0
-56 -58 0
57 -58 0
-56 57 59 0
56 -59 0
-57 -59 0
58 59 60 0
-58 -60 0
-59 -60 0
-51 -36 61 0
51 -61 0
36 -61 0
-61 31 62 0
61 -62 0
-31 -62 0
60 62 63 0
-60 -63 0
-62 -63 0
-60 -62 64 0
60 -64 0
62 -64 0
63 64 65 0
-63 -65 0
-64 -65 0
-49 -50 66 0
49 -66 0
50 -66 0
66 51 67 0
-66 -67 0
-51 -67 0
-15 -26 68 0
15 -68 0
26 -68 0
68 27 69 0
-68 -69 0
-27 -69 0
67 -69 70 0
-67 -70 0
69 -70 0
-67 69 71 0
67 -71 0
-69 -71 0
70 71 72 0
-70 -72 0
-71 -72 0
46 -47 73 0
-46 -73 0
47 -73 0
73 48 74 0
-73 -74 0
-48 -74 0
17 -25 75 0
-17 -75 0
25 -75 0
75 26 76 0
-75 -76 0
-26 -76 0
74 76 77 0
-74 -77 0
-76 -77 0
-74 -76 78 0
74 -78 0
76 -78 0
77 78 79 0
-77 -79 0
-78 -79 0
44 -38 80 0
-44 -80 0
38 -80 0
-44 38 81 0
44 -81 0
-38 -81 0
80 81 82 0
-80 -82 0
-81 -82 0
-21 1 83 0
21 -83 0
-1 -83 0
83 -23 84 0
-83 -84 0
23 -84 0
84 22 85 0
-84 -85 0
-22 -85 0
82 85 86 0
-82 -86 0
-85 -86 0
-82 -85 87 0
82 -87 0
85 -87 0
86 87 88 0
-86 -88 0
-87 -88 0
45 -35 89 0
-45 -89 0
35 -89 0
-45 35 90 0
45 -90 0
-35 -90 0
89 90 91 0
-89 -91 0
-90 -91 0
19 24 92 0
-19 -92 0
-24 -92 0
92 25 93 0
-92 -93 0
-25 -93 0
-91 -93 94 0
91 -94 0
93 -94 0
-88 94 95 0
88 -95 0
-94 -95 0
91 93 96 0
-91 -96 0
-93 -96 0
-95 96 97 0
95 -97 0
-96 -97 0
-41 -42 98 0
41 -98 0
42 -98 0
98 43 99 0
-98 -99 0
-43 -99 0
-99 1 100 0
99 -100 0
-1 -100 0
99 -1 101 0
-99 -101 0
1 -101 0
100 101 102 0
-100 -102 0
-101 -102 0
-102 40 103 0
102 -103 0
-40 -103 0
-103 -21 104 0
103 -104 0
21 -104 0
102 -40 105 0
-102 -105 0
40 -105 0
-105 21 106 0
105 -106 0
-21 -106 0
104 106 107 0
-104 -107 0
-106 -107 0
-97 107 108 0
97 -108 0
-107 -108 0
79 -108 109 0
-79 -109 0
108 -109 0
72 -109 110 0
-72 -110 0
109 -110 0
65 -110 111 0
-65 -111 0
110 -111 0
-55 -111 112 0
55 -112 0
111 -112 0
112 0
